p cnf 100 40
x -2 -3 5 7 8 9 -12 13 18 21 25 26 -28 -30 31 33 34 38 -44 45 46 47 -48 -49 52 -55 56 -59 60 -62 65 73 74 76 -78 79 83 -84 85 86 -88 -89 -90 91 -92 95 97 98 0
x 4 5 7 8 11 12 -13 14 -17 -19 -20 23 24 -25 26 -28 -29 -30 -31 32 -35 -36 -38 39 41 -46 51 -52 -54 -55 -56 57 58 -59 -61 -62 64 -66 68 72 -73 -75 -76 77 78 -79 85 87 -89 -91 -92 -94 -95 96 -97 98 0
x -3 -5 7 -10 -13 -14 15 17 -18 -19 -20 22 25 -26 -28 -29 30 32 33 34 -35 -36 -37 -38 -43 -44 -45 47 50 -54 -57 60 66 68 -69 71 74 -77 78 79 -80 -82 83 -84 85 -86 -87 -88 -89 90 91 92 -96 -100 0
x -1 2 3 -4 -5 6 -8 9 -11 -13 -15 20 -23 24 -25 28 -36 39 -40 42 -43 45 47 -49 -51 -52 54 55 -57 -59 -60 -63 64 -66 -68 -69 70 72 73 -76 -77 79 80 83 85 -86 87 88 -90 92 -94 98 100 0
x -1 2 -3 4 5 -7 8 -11 -13 16 -17 -19 21 -22 26 -27 29 30 32 -33 34 -35 -36 -37 42 -48 -49 51 -52 53 -54 -55 -58 -59 60 64 65 -66 -67 68 -69 -74 76 78 -79 81 -82 -83 -86 87 -88 -91 92 -93 -95 0
x 1 -8 9 -10 -11 12 -13 14 15 -17 18 19 -21 -26 27 -30 31 34 -35 -36 37 -38 39 45 -47 -49 -50 51 54 59 61 -62 -63 64 65 -67 68 69 -70 71 74 -76 -77 -83 87 89 -90 -92 -95 0
x -1 2 -3 -4 5 6 -7 9 10 11 -12 13 16 -17 19 -20 21 23 -27 -28 30 31 -32 33 34 -40 42 -45 46 48 -50 -52 53 -55 -56 57 -58 59 -62 63 65 67 68 72 74 -75 76 78 81 83 -84 -86 -87 -88 -98 0
x 1 -5 -7 8 13 -16 -18 -20 -21 -22 -24 25 -28 -31 -32 -37 41 -42 -43 -45 -49 -50 51 -53 -56 -59 60 61 65 67 -70 71 -74 75 -76 77 -80 82 -83 -84 -85 88 -89 90 -91 -93 94 -95 -98 99 0
x 3 -4 5 -6 -7 8 -10 -11 -12 -16 17 22 23 24 -26 -27 -29 31 -33 34 37 -38 41 -43 45 48 -49 -52 -58 64 65 68 69 -70 -71 -73 74 -75 -76 77 78 -79 84 87 88 -90 94 -96 -97 -100 0
x -2 4 6 7 -8 -9 10 -11 13 -16 17 -19 -20 -21 22 24 -26 -30 -31 33 35 -40 41 -46 47 49 50 -51 -57 -60 -61 -62 -63 64 -65 -68 69 70 71 -72 74 -76 -82 -84 -86 87 -88 89 -93 -94 -96 -99 100 0
x -5 8 -9 10 -11 -12 -16 17 18 -19 21 -22 23 -24 -25 27 29 -32 -33 -34 -35 -39 46 -47 50 -52 54 -55 56 -58 59 -61 -62 -63 64 -66 -67 -68 70 -73 75 -78 80 -81 82 -83 85 87 -88 -89 90 92 93 -94 95 96 98 -99 100 0
x 2 4 5 7 9 12 14 -15 17 -19 -20 22 26 29 -30 32 33 35 -37 38 39 -40 -42 -43 44 -45 47 -48 50 -51 52 53 55 -56 57 -58 60 64 -65 -66 -69 -70 -71 72 -73 -80 -82 -83 84 85 89 -93 95 97 -99 0
x -1 4 5 -7 12 13 15 -16 18 20 -21 22 24 -25 -26 -27 -29 30 31 32 -34 35 -38 -40 -41 43 -45 -46 48 49 -50 52 -53 54 56 -57 60 61 62 64 -65 -66 67 -68 -72 75 -78 80 84 -85 -90 -91 92 -93 -94 95 -96 100 0
x -1 2 -4 5 10 -12 13 14 -15 16 20 22 23 28 30 34 36 -38 -39 -41 43 44 -46 -47 -49 50 51 52 59 -62 -63 -64 65 70 71 72 74 -79 81 82 -83 -86 -88 -89 -91 -92 93 -94 97 -99 -100 0
x -1 -3 -4 5 -6 -8 -9 10 13 -20 21 23 25 -26 -29 30 -33 -34 -36 37 39 -41 -42 -44 -45 -46 49 50 -51 53 -54 -55 56 -57 -59 -60 -63 -64 -65 66 67 70 71 -72 -74 75 77 -81 83 -84 -85 -87 -88 -89 92 94 96 -98 99 0
x -2 4 -5 7 -8 -10 -11 -13 16 17 -18 19 -21 24 25 -27 31 -32 -33 34 36 39 -40 -41 -42 43 -44 -50 -54 55 -58 60 -61 -62 64 69 -70 -71 -72 75 77 78 79 -81 83 84 -85 86 87 -95 -96 -97 99 100 0
x -2 -3 4 5 -6 -7 8 10 -11 15 -16 -18 -23 24 -26 27 -28 -29 33 35 -39 -40 42 45 -47 -51 52 -56 -58 -61 64 67 68 69 -70 72 -74 75 -81 -85 86 89 -94 96 98 99 0
x -1 3 4 6 -7 8 9 -11 -14 18 -19 22 -23 -26 -28 -29 30 -31 -32 33 34 -35 36 39 42 -43 -44 -46 47 50 52 53 -58 -59 62 -63 -66 67 68 -69 -71 72 -73 -75 -79 -80 82 -84 85 88 -90 -91 92 94 -96 -97 -99 -100 0
x -1 -3 -6 -10 -12 15 16 -18 -19 20 -23 -25 -27 28 29 32 35 36 -37 40 -45 46 47 -50 -51 -52 54 55 56 -59 -61 62 63 -64 -66 -69 -70 74 -75 76 78 -85 86 -87 88 -92 93 94 -96 99 0
x 3 -4 5 -6 8 -9 -10 11 12 13 15 -17 19 -20 -22 27 -36 39 41 -42 -47 51 52 -53 -54 -56 -57 -59 -62 63 -65 67 69 -73 -76 -80 81 -82 83 88 -91 93 -96 97 98 0
x 6 -7 12 19 -24 -25 -26 29 33 -34 -40 42 -44 47 48 -51 -56 -57 58 -59 60 -61 62 -63 64 -65 -66 71 72 -74 77 78 79 -80 -82 -83 84 -85 91 92 -93 94 -97 98 -99 0
x -1 -3 -4 7 8 9 14 17 19 -20 -21 22 -24 27 29 30 -47 -51 53 54 56 57 -58 59 -60 -61 -63 -64 65 -68 -70 71 72 73 77 78 80 -81 -83 84 86 -87 88 -89 90 91 96 -97 -98 99 0
x -1 3 -4 -7 -9 -15 17 18 -20 -21 24 -26 -27 -28 -29 32 33 -37 38 40 -41 -42 -49 -50 -51 -55 58 -60 -61 -63 -64 65 66 -69 -71 73 -74 85 88 -90 -92 93 95 -96 -99 0
x -1 -2 -3 6 15 16 17 18 21 23 -25 -27 -30 -31 36 39 -41 -42 43 -47 52 -54 56 -57 -59 60 62 -63 -64 65 -66 -73 -74 75 -76 -77 -78 80 -84 86 87 88 -89 -91 92 93 -94 -97 98 99 0
x 1 -2 -5 8 11 -12 13 -16 -17 -18 19 -20 21 -22 -23 -25 29 -31 32 -34 40 41 42 -43 44 -46 49 -50 -51 52 54 -55 -56 -58 61 65 66 67 -68 -72 -74 -75 -77 -81 83 -84 89 91 94 -95 96 97 100 0
x 1 3 5 6 7 8 -9 -10 14 -16 -19 -20 23 24 26 -27 28 29 -33 -35 -36 37 46 47 48 49 51 52 -53 54 -55 56 -57 -61 -62 63 -65 -67 -68 -71 72 -74 -77 -80 81 82 -86 -89 -90 -91 -92 -93 94 95 96 -99 100 0
x 7 9 10 -16 19 21 22 23 24 25 -28 33 34 -38 -40 -41 42 -44 45 -47 49 -51 -54 -55 57 60 -63 65 -68 -71 -72 73 -75 76 77 78 -79 85 -87 88 89 -97 -98 -100 0
x -3 -4 -5 -6 -8 -10 -11 13 -14 -16 19 -20 -22 -23 -24 -25 27 -28 -29 -37 40 -41 45 46 -47 -48 50 55 58 64 66 -67 -68 -69 73 76 77 85 -87 88 94 -96 97 99 -100 0
x 1 -3 -5 9 -10 14 -15 -19 20 -23 24 -25 27 28 30 -32 33 -34 -35 -37 -38 41 42 44 -45 -47 -48 49 51 54 55 56 -58 -59 -61 62 66 67 69 -70 -72 73 76 77 -78 79 -81 82 83 -84 86 -87 -88 92 93 97 -98 0
x 1 3 5 6 7 8 9 -10 -12 16 17 -18 20 21 -22 27 -29 -30 -31 -32 -35 -39 -40 41 42 43 45 48 49 -50 51 -55 56 -57 -61 -66 68 -70 72 -74 -75 -77 78 79 80 82 84 85 -86 -88 -89 90 91 92 93 94 -95 -96 98 -100 0
x 5 -6 -10 18 20 22 -23 26 -30 -31 32 34 35 -37 38 -42 -44 -46 -47 -57 -60 61 67 68 -69 -73 79 -81 -82 -84 85 -86 88 90 92 93 -94 -98 99 0
x -1 -2 -3 4 -8 -9 -10 17 26 -31 34 36 -37 38 -41 44 -45 -47 -48 -49 -51 52 -53 54 -55 -56 -59 60 -64 -65 -67 68 73 74 76 78 -80 81 84 -86 87 -91 92 -96 -97 100 0
x -2 3 6 -7 9 -10 -12 -14 15 -17 19 -20 23 -25 -26 27 -30 -31 -32 -33 -34 -37 -38 -39 -40 -42 46 49 51 52 53 -55 -56 58 59 -62 -64 71 72 73 -79 -85 86 -89 -90 94 97 100 0
x 2 -6 7 -13 16 17 -19 21 24 28 -29 35 -37 38 41 -42 -44 45 -46 49 54 -58 59 -60 63 64 -66 -67 70 73 -76 78 -79 -80 -81 82 83 -84 85 87 93 -95 97 98 99 -100 0
x 4 6 -7 -10 12 13 -15 17 18 -23 -26 30 -31 -35 36 39 -40 41 43 -44 -45 -46 48 49 -50 -51 52 53 58 -59 -61 -62 63 -64 66 68 -69 70 75 76 77 79 83 -86 -88 -91 -93 -94 -97 98 99 100 0
x 1 -5 -6 9 10 11 15 -17 -19 -27 -29 32 -33 -34 -36 38 39 42 47 48 -49 -50 51 53 -55 -56 58 -59 64 66 69 70 -71 -73 76 -79 -83 85 86 -87 -90 91 -93 96 -97 98 99 -100 0
x 2 3 5 7 -8 -9 -10 11 -12 -18 19 -21 22 -24 -25 -27 -29 -30 32 -34 -36 37 39 -40 -41 42 43 -44 -46 -49 52 -53 54 -56 58 -59 61 -63 64 -69 70 71 -73 -74 -77 83 84 86 87 88 90 -91 92 93 -94 -95 96 -97 98 100 0
x 2 5 -6 -7 9 -10 -11 -13 14 19 20 21 -22 -24 25 -26 28 -29 31 34 -37 39 40 41 42 43 -44 45 46 -47 -48 -49 52 -54 -55 -56 -60 61 62 64 -71 72 -73 -79 -80 81 -84 86 88 -91 -95 97 98 0
x 2 4 -7 -11 12 13 -15 -17 -19 -20 21 23 -25 -26 32 -33 -34 -38 40 41 43 44 -47 -49 50 -51 -53 -54 56 57 -58 -59 -60 -62 -64 -65 -66 -68 69 70 -71 -72 -74 76 77 -83 86 -87 -92 -93 -95 -98 100 0
x -2 -5 6 9 -10 11 -12 13 14 -17 -20 22 24 -26 30 33 34 -35 37 -38 -42 -46 -48 -50 -52 53 55 -58 -59 60 63 -68 -69 71 72 73 76 -77 79 80 82 -84 85 88 90 91 -92 93 -94 -95 -96 0
g -20